* #variable= 17 #constraint= 11
+8 x1 +4 x2 +2 x3 +1 x4 >= 1 ;
-8 x1 -4 x2 -2 x3 -1 x4 >= -3 ;
+8 x5 +4 x6 +2 x7 +1 x8 >= 1 ;
-8 x5 -4 x6 -2 x7 -1 x8 >= -7 ;
+8 x1 +4 x2 +2 x3 +1 x4 +8 x5 +4 x6 +2 x7 +1 x8 = +16 x13 +8 x14 +4 x15 +2 x16 +1 x17 ;
+1 x17 -1 x12 = 0 ;
+1 x16 -1 x11 = 0 ;
+1 x15 -1 x10 = 0 ;
+1 x14 -1 x9 = 0 ;
+8 x9 -4 x10 -2 x11 -1 x12 >= 0 ;
-8 x9 +4 x10 +2 x11 +1 x12 >= 0 ;
